p cnf 20 15
20 8 17 -6 14 0
7 -14 18 -20 -9 0
20 -7 11 1 17 0
10 -18 14 11 9 0
-7 -17 2 -19 -9 0
5 14 9 -3 15 0
-12 13 -10 -3 -17 0
-17 -5 -6 -13 3 0
19 -13 18 4 -6 0
-13 4 -12 -17 6 0
13 8 -16 -20 3 0
16 4 -5 -10 -11 0
11 15 9 -18 20 0
19 -11 -5 -18 14 0
-19 -9 5 -18 2 0
